qe/outputs/qe/cbrdelay_l0_discretizeC/T=5,eliminate=[I_0,I_1,I_2,I_3,I_4,L_4,lhs=B].smt2
; benchmark generated from python API
(set-info :status unknown)
(declare-fun S_4 () Real)
(declare-fun S_3 () Real)
(declare-fun C () Real)
(declare-fun S_2 () Real)
(declare-fun S_0 () Real)
(declare-fun S_1 () Real)
(declare-fun A_0 () Real)
(declare-fun L_0 () Real)
(declare-fun L0 () Real)
(declare-fun B () Real)
(declare-fun A_1 () Real)
(declare-fun A_2 () Real)
(declare-fun L_1 () Real)
(declare-fun A_3 () Real)
(declare-fun L_3 () Real)
(declare-fun L_2 () Real)
(declare-fun A_4 () Real)
(assert
 (let (($x37 (>= L0 0.0)))
 (let (($x581 (>= C 5.0)))
 (let (($x717 (>= B 5.0)))
 (let (($x9052 (or (>= S_3 (+ A_2 (* (- 1.0) L_0))) (<= (+ C A_1 (* (- 1.0) L_0) (* (- 1.0) S_3)) 0.0) (not (<= 0.0 (+ C L_0 (* (- 1.0) A_1) S_0))))))
 (let (($x9264 (<= 0.0 (+ C L_0 (* (- 1.0) A_1) S_0))))
 (let ((?x322 (* (- 1.0) L_1)))
 (let ((?x871 (+ A_2 ?x322)))
 (let (($x1214 (>= S_3 ?x871)))
 (let (($x12914 (or $x1214 $x9264 (<= (+ (* 2.0 C) (* (- 1.0) S_3) S_0) 0.0))))
 (let (($x2485 (not (= L_1 L_3))))
 (let (($x9393 (<= (+ A_1 (* (- 1.0) L_0) L_3 (* (- 1.0) A_3) (* 2.0 C)) 0.0)))
 (let ((?x237 (* (- 1.0) C)))
 (let ((?x471 (* (- 1.0) L_3)))
 (let ((?x529 (* (- 1.0) B)))
 (let ((?x9121 (+ ?x529 ?x471 A_3 ?x237)))
 (let ((?x573 (* (- 1.0) L_0)))
 (let ((?x1596 (+ A_2 ?x573)))
 (let (($x9152 (<= ?x1596 ?x9121)))
 (let (($x3140 (not (= L_0 L_2))))
 (let (($x3047 (= L_3 L_0)))
 (let (($x1520 (not (= L_2 L_3))))
 (let (($x64 (= L_2 L_1)))
 (let (($x9259 (= (+ (* (- 2.0) C) ?x529 ?x471 (* (- 1.0) A_1) A_3 L_0) 0.0)))
 (let (($x13041 (or (not (<= (+ A_1 ?x573) (+ ?x529 ?x471 A_3 (* (- 2.0) C)))) $x9259)))
 (let ((?x1086 (* (- 2.0) C)))
 (let ((?x9213 (+ ?x529 ?x471 A_3 ?x1086)))
 (let ((?x854 (+ A_1 ?x573)))
 (let (($x9219 (<= ?x854 ?x9213)))
 (let (($x2650 (= L_3 L_1)))
 (let (($x1317 (not (= L_1 L_2))))
 (let (($x809 (not (<= L_1 L_0))))
 (let (($x9317 (or $x809 $x1317 $x2650 $x9152 (<= S_0 (+ ?x529 ?x471 A_3 (* (- 3.0) C))) $x9219)))
 (let (($x13197 (or (= L_3 (+ A_3 (* (- 1.0) A_2) L_0 ?x237 ?x529)) (not $x9152))))
 (let (($x12926 (or (<= (+ (* (- 1.0) S_2) A_1 ?x573) 0.0) (<= (+ C (* (- 1.0) S_2) S_0) 0.0))))
 (let (($x9108 (not (<= A_2 (+ A_1 ?x529 C)))))
 (let (($x1497 (= L_2 L_0)))
 (let (($x1454 (not (= L_0 L_1))))
 (let (($x9043 (or $x1454 $x1497 (<= (+ A_1 ?x573 L_2 (* (- 1.0) A_2) C) 0.0))))
 (let ((?x379 (* (- 1.0) L_2)))
 (let ((?x8867 (+ ?x529 ?x379 A_2 ?x237)))
 (let (($x8944 (<= ?x854 ?x8867)))
 (let (($x12874 (or (= (+ ?x237 A_2 ?x379 ?x529 (* (- 1.0) A_1) L_0) 0.0) (not $x8944))))
 (let ((?x431 (+ A_1 ?x322 ?x529 C)))
 (let (($x365 (<= (+ A_2 ?x379) ?x431)))
 (let (($x74 (= L_3 L_2)))
 (let (($x54 (= L_1 L_0)))
 (let (($x9018 (or $x1317 $x2650 (not (<= (+ A_3 ?x471) (+ A_2 ?x322 C))) (= (+ A_3 ?x471) (+ A_2 ?x322 C)))))
 (let (($x1858 (not (<= L_3 L_2))))
 (let (($x13003 (or $x54 $x1858 (<= (+ A_3 ?x379 (* (- 1.0) A_1) L_1 ?x1086) 0.0))))
 (let (($x36 (>= L_0 L0)))
 (let (($x111 (>= S_1 S_0)))
 (let (($x114 (>= S_2 S_1)))
 (let (($x117 (>= S_3 S_2)))
 (let (($x122 (>= A_1 A_0)))
 (let (($x123 (>= A_2 A_1)))
 (let (($x124 (>= A_3 A_2)))
 (and (<= (+ A_3 ?x471) S_4) $x124 $x123 $x122 $x117 $x114 $x111 $x36 (>= S_2 (+ A_1 ?x322 ?x529)) (or $x365 (>= S_3 ?x431)) (or $x54 $x809) (or (not $x365) $x64) (or $x54 (<= S_0 (+ ?x529 ?x322 A_1 ?x237))) (<= (+ ?x529 ?x322 A_1 ?x237) (+ A_0 ?x573)) (or $x54 (<= S_2 ?x431)) (>= S_1 (+ ?x529 ?x322 A_1 ?x237)) (>= S_0 (+ ?x529 ?x322 A_1 ?x1086)) (or $x54 $x64 (= L_2 (+ A_2 (* (- 1.0) A_1) L_1 ?x237))) (or $x54 $x1317 (<= (+ A_2 (* (- 1.0) A_1) ?x237) 0.0)) (or $x54 (<= S_1 (+ A_1 ?x322 ?x529))) (or $x64 (<= S_2 (+ A_2 ?x379 ?x529))) (or $x64 (<= S_1 ?x8867)) (or $x74 $x1858) (>= S_3 (+ A_2 ?x379 ?x529)) (>= S_2 ?x8867) (or $x64 $x74 (= (+ A_3 ?x471) (+ A_2 ?x379 C))) (not (<= (+ A_4 ?x471) S_4)) (>= S_0 (+ ?x529 ?x379 A_2 (* (- 3.0) C))) (<= (+ ?x529 ?x379 A_2 ?x1086) (+ A_0 ?x573)) (or $x64 (<= S_4 (+ A_2 ?x379 ?x529 (* 2.0 C)))) (<= (+ S_1 (* (- 1.0) A_1) L_0) 0.0) (or $x54 (<= S_3 (+ A_1 ?x322 ?x529 (* 2.0 C)))) $x13003 (or $x54 (<= S_4 (+ A_1 ?x322 ?x529 (* 3.0 C)))) (or $x74 (<= S_3 (+ A_3 ?x471 ?x529))) (or $x74 (<= S_4 (+ A_3 ?x471 ?x529 C))) $x9018 (or $x54 $x74 $x365 (= L_3 (+ A_3 (* (- 1.0) A_1) L_1 ?x1086))) (or (not (<= (+ A_2 (* (- 1.0) A_1) ?x237) 0.0)) $x64) (or (not (<= L_2 L_0)) $x1497) $x12874 (or $x64 (<= S_0 (+ ?x529 ?x379 A_2 ?x1086)) $x8944) $x9043 (>= S_1 (+ ?x529 ?x379 A_2 ?x1086)) (<= S_3 (+ A_3 ?x379)) (or $x1214 $x9108) (or $x74 (<= S_2 ?x9121)) (or $x2650 $x9108 (= L_3 (+ A_3 (* (- 1.0) A_2) L_1 ?x237 ?x529))) (<= S_4 (+ A_3 ?x379 C)) (or $x64 (<= S_3 (+ A_2 ?x379 ?x529 C))) $x12926 (<= (+ ?x237 L_0 S_1 (* (- 1.0) A_0)) 0.0) (<= S_2 ?x871) $x13197 (<= (+ ?x529 ?x471 A_3 (* (- 3.0) C)) (+ A_0 ?x573)) (>= S_3 ?x9121) (or $x809 $x1317 $x2650 $x9152 (<= S_1 ?x9213)) (>= S_2 ?x9213) $x9317 $x13041 (>= S_0 (+ ?x529 ?x471 A_3 (* (- 4.0) C))) (or $x64 $x1520 (<= (+ A_3 (* (- 1.0) A_2) ?x237) 0.0)) (>= S_1 (+ ?x529 ?x471 A_3 (* (- 3.0) C))) (or $x3047 $x3140 $x9152 $x9393) (<= S_3 (+ A_2 ?x322 C)) (<= S_4 (+ A_2 ?x322 (* 2.0 C))) (or $x1214 (<= (+ C S_1 (* (- 1.0) S_3)) 0.0)) (<= (+ ?x1086 L_0 S_2 (* (- 1.0) A_0)) 0.0) (<= (+ (* (- 3.0) C) L_0 S_3 (* (- 1.0) A_0)) 0.0) (<= (+ (* (- 5.0) C) S_4 (* (- 1.0) S_0)) 0.0) (<= (+ (* (- 4.0) C) L_0 S_4 (* (- 1.0) A_0)) 0.0) (<= (+ (* (- 4.0) C) S_3 (* (- 1.0) S_0)) 0.0) (<= (+ (* (- 1.0) A_1) L_0 ?x1086 S_3) 0.0) (<= (+ (* (- 1.0) A_1) L_0 (* (- 3.0) C) S_4) 0.0) (or $x2485 (<= (+ A_3 (* (- 1.0) A_2) ?x237) B)) $x12914 $x9052 (<= (+ ?x237 (* (- 1.0) A_1) L_0 S_2) 0.0) (<= (+ (* (- 3.0) C) (* (- 1.0) S_1) S_3) 0.0) (<= (+ (* (- 3.0) C) S_2 (* (- 1.0) S_0)) 0.0) (<= (+ ?x1086 S_2 (* (- 1.0) S_1)) 0.0) (<= (+ (* (- 4.0) C) (* (- 1.0) S_1) S_4) 0.0) $x717 $x581 $x37 (<= (+ L_0 S_0 (* (- 1.0) A_0)) 0.0) (<= (+ ?x1086 S_1 (* (- 1.0) S_0)) 0.0) (<= (+ (* (- 3.0) C) (* (- 1.0) S_2) S_4) 0.0) (<= (+ ?x1086 (* (- 1.0) S_2) S_3) 0.0) (<= (+ ?x1086 (* (- 1.0) S_3) S_4) 0.0)))))))))))))))))))))))))))))))))))))))))))))))))))))))))))
(check-sat)
